Test: Urq5_5.cnf
Options: -no-inverting-opt -sym-var-bump
WARNING: for repeatability, setting FPU to use double precision
============================[ Problem Statistics ]=============================
|                                                                             |
|  Number of symmetries:           72                                         |
|  Number of invertingSyms:        72                                         |
|  Number of variables:           121                                         |
|  Number of clauses:            1210                                         |
|  Parse time:                   0.00 s                                       |
|                                                                             |
============================[ Search Statistics ]==============================
| Conflicts |          ORIGINAL         |          LEARNT          | Progress |
|           |    Vars  Clauses Literals |    Limit  Clauses Lit/Cl |          |
===============================================================================
|       100 |     121     1210     7548 |      443      102     28 |  0.007 % |
|       250 |     121     1210     7548 |      488      292     21 |  0.007 % |
|       475 |     121     1210     7548 |      536      295     18 |  0.007 % |
|       812 |     121     1210     7548 |      590      396     19 |  0.007 % |
|      1318 |     121     1210     7548 |      649      333     17 |  0.007 % |
|      2077 |     121     1210     7548 |      714      496     18 |  0.007 % |
|      3216 |     121     1210     7548 |      785      558     21 |  0.007 % |
|      4924 |     121     1210     7548 |      864      429     16 |  0.007 % |
|      7486 |     121     1210     7548 |      951      762     20 |  0.007 % |
|     11330 |     121     1210     7548 |     1046      615     17 |  0.007 % |
|     17096 |     121     1210     7548 |     1150      697     18 |  0.007 % |
|     25745 |     121     1210     7548 |     1265     1101     21 |  0.007 % |
|     38719 |     121     1210     7548 |     1392      695     18 |  0.007 % |
|     58180 |     121     1210     7548 |     1531     1333     18 |  0.007 % |
|     87372 |     121     1210     7548 |     1684     1586     22 |  0.007 % |
|    131161 |     121     1210     7548 |     1853     1654     18 |  0.007 % |
|    196845 |     121     1210     7548 |     2038     1362     23 |  0.007 % |
|    295371 |     121     1210     7548 |     2242     1366     23 |  0.007 % |
|    443160 |     121     1210     7548 |     2466     1918     24 |  0.007 % |
|    664843 |     121     1210     7548 |     2713     1774     17 |  0.007 % |
|    997368 |     121     1210     7548 |     2984     2256     21 |  0.007 % |
|   1496156 |     121     1210     7548 |     3283     1702     19 |  0.007 % |
|   2244338 |     121     1210     7548 |     3611     2665     31 |  0.007 % |
|   3366612 |     121     1210     7548 |     3972     3166     21 |  0.007 % |
|   5050023 |     121     1210     7548 |     4369     3038     32 |  0.007 % |
===============================================================================
restarts              : 11259
conflicts             : 6891417        (71138 /sec)
symconflicts          : 1204828        (12437 /sec)
decisions             : 12501650       (0.00 % random) (129051 /sec)
propagations          : 45542860       (470124 /sec)
sympropagations       : 1204828        (12437 /sec)
conflict literals     : 169409073      (2.10 % deleted)
literals     : 169409073      (2.10 % deleted)

HEURISTIC USAGES
random                : 0           
activity w/ lookahead : 0           
activity no lookahead : 0           
original sp           : 12501650    
sym count             : 0           

Memory used           : 6.00 MB
CPU time              : 96.8741 s

UNSATISFIABLE
